============================[ Problem Statistics ]=============================|                                                                             ||  Number of variables:          4242                                         ||  Number of clauses:           10176                                         ||  Parse time:                   0.58 s                                       ||                                                                             |============================[ Search Statistics ]==============================| Conflicts |          ORIGINAL         |          LEARNT          | Progress ||           |    Vars  Clauses Literals |    Limit  Clauses Lit/Cl |          |===============================================================================|       100 |    1591     6381   899572 |     2339      100     53 | 62.501 % ||       250 |    1591     6381   899572 |     2573      250     75 | 62.495 % |===============================================================================restarts              : 3conflicts             : 312            (360 /sec)decisions             : 576            (0.00 % random) (664 /sec)propagations          : 11876          (13698 /sec)conflict literals     : 24809          (94.71 % deleted)CPU time              : 0.867 sSATISFIABLE